c File: flat50_3_0.col
c
c SOURCE: Joseph Culberson (joe@cs.ualberta.ca)
c DESCRIPTION: Quasi-random coloring problem
c              generated with flatness = 0
c                             probability = 0.139
c                             known coloring = 3
c                             random seed = 1339
c              Creation Date:  Tue Jun  9 12:06:57 1998
c Maximum degree = 8 Minimum degree = 2
c p edge 50 115
c cnf created by edge2cnf
p cnf 150 545
-1 -2 0
-1 -3 0
-2 -3 0
1 2 3 0
-4 -5 0
-4 -6 0
-5 -6 0
4 5 6 0
-7 -8 0
-7 -9 0
-8 -9 0
7 8 9 0
-10 -11 0
-10 -12 0
-11 -12 0
10 11 12 0
-13 -14 0
-13 -15 0
-14 -15 0
13 14 15 0
-16 -17 0
-16 -18 0
-17 -18 0
16 17 18 0
-19 -20 0
-19 -21 0
-20 -21 0
19 20 21 0
-22 -23 0
-22 -24 0
-23 -24 0
22 23 24 0
-25 -26 0
-25 -27 0
-26 -27 0
25 26 27 0
-28 -29 0
-28 -30 0
-29 -30 0
28 29 30 0
-31 -32 0
-31 -33 0
-32 -33 0
31 32 33 0
-34 -35 0
-34 -36 0
-35 -36 0
34 35 36 0
-37 -38 0
-37 -39 0
-38 -39 0
37 38 39 0
-40 -41 0
-40 -42 0
-41 -42 0
40 41 42 0
-43 -44 0
-43 -45 0
-44 -45 0
43 44 45 0
-46 -47 0
-46 -48 0
-47 -48 0
46 47 48 0
-49 -50 0
-49 -51 0
-50 -51 0
49 50 51 0
-52 -53 0
-52 -54 0
-53 -54 0
52 53 54 0
-55 -56 0
-55 -57 0
-56 -57 0
55 56 57 0
-58 -59 0
-58 -60 0
-59 -60 0
58 59 60 0
-61 -62 0
-61 -63 0
-62 -63 0
61 62 63 0
-64 -65 0
-64 -66 0
-65 -66 0
64 65 66 0
-67 -68 0
-67 -69 0
-68 -69 0
67 68 69 0
-70 -71 0
-70 -72 0
-71 -72 0
70 71 72 0
-73 -74 0
-73 -75 0
-74 -75 0
73 74 75 0
-76 -77 0
-76 -78 0
-77 -78 0
76 77 78 0
-79 -80 0
-79 -81 0
-80 -81 0
79 80 81 0
-82 -83 0
-82 -84 0
-83 -84 0
82 83 84 0
-85 -86 0
-85 -87 0
-86 -87 0
85 86 87 0
-88 -89 0
-88 -90 0
-89 -90 0
88 89 90 0
-91 -92 0
-91 -93 0
-92 -93 0
91 92 93 0
-94 -95 0
-94 -96 0
-95 -96 0
94 95 96 0
-97 -98 0
-97 -99 0
-98 -99 0
97 98 99 0
-100 -101 0
-100 -102 0
-101 -102 0
100 101 102 0
-103 -104 0
-103 -105 0
-104 -105 0
103 104 105 0
-106 -107 0
-106 -108 0
-107 -108 0
106 107 108 0
-109 -110 0
-109 -111 0
-110 -111 0
109 110 111 0
-112 -113 0
-112 -114 0
-113 -114 0
112 113 114 0
-115 -116 0
-115 -117 0
-116 -117 0
115 116 117 0
-118 -119 0
-118 -120 0
-119 -120 0
118 119 120 0
-121 -122 0
-121 -123 0
-122 -123 0
121 122 123 0
-124 -125 0
-124 -126 0
-125 -126 0
124 125 126 0
-127 -128 0
-127 -129 0
-128 -129 0
127 128 129 0
-130 -131 0
-130 -132 0
-131 -132 0
130 131 132 0
-133 -134 0
-133 -135 0
-134 -135 0
133 134 135 0
-136 -137 0
-136 -138 0
-137 -138 0
136 137 138 0
-139 -140 0
-139 -141 0
-140 -141 0
139 140 141 0
-142 -143 0
-142 -144 0
-143 -144 0
142 143 144 0
-145 -146 0
-145 -147 0
-146 -147 0
145 146 147 0
-148 -149 0
-148 -150 0
-149 -150 0
148 149 150 0
-70 -1 0
-71 -2 0
-72 -3 0
-88 -1 0
-89 -2 0
-90 -3 0
-130 -1 0
-131 -2 0
-132 -3 0
-136 -1 0
-137 -2 0
-138 -3 0
-64 -4 0
-65 -5 0
-66 -6 0
-97 -4 0
-98 -5 0
-99 -6 0
-121 -4 0
-122 -5 0
-123 -6 0
-148 -4 0
-149 -5 0
-150 -6 0
-106 -7 0
-107 -8 0
-108 -9 0
-118 -7 0
-119 -8 0
-120 -9 0
-148 -7 0
-149 -8 0
-150 -9 0
-58 -10 0
-59 -11 0
-60 -12 0
-73 -10 0
-74 -11 0
-75 -12 0
-85 -10 0
-86 -11 0
-87 -12 0
-88 -10 0
-89 -11 0
-90 -12 0
-142 -10 0
-143 -11 0
-144 -12 0
-55 -13 0
-56 -14 0
-57 -15 0
-67 -13 0
-68 -14 0
-69 -15 0
-82 -13 0
-83 -14 0
-84 -15 0
-79 -16 0
-80 -17 0
-81 -18 0
-88 -16 0
-89 -17 0
-90 -18 0
-97 -16 0
-98 -17 0
-99 -18 0
-100 -16 0
-101 -17 0
-102 -18 0
-115 -16 0
-116 -17 0
-117 -18 0
-145 -16 0
-146 -17 0
-147 -18 0
-136 -19 0
-137 -20 0
-138 -21 0
-139 -19 0
-140 -20 0
-141 -21 0
-67 -22 0
-68 -23 0
-69 -24 0
-91 -22 0
-92 -23 0
-93 -24 0
-106 -22 0
-107 -23 0
-108 -24 0
-118 -22 0
-119 -23 0
-120 -24 0
-127 -22 0
-128 -23 0
-129 -24 0
-133 -22 0
-134 -23 0
-135 -24 0
-64 -25 0
-65 -26 0
-66 -27 0
-73 -25 0
-74 -26 0
-75 -27 0
-76 -25 0
-77 -26 0
-78 -27 0
-103 -25 0
-104 -26 0
-105 -27 0
-121 -25 0
-122 -26 0
-123 -27 0
-127 -25 0
-128 -26 0
-129 -27 0
-136 -25 0
-137 -26 0
-138 -27 0
-52 -28 0
-53 -29 0
-54 -30 0
-70 -28 0
-71 -29 0
-72 -30 0
-73 -28 0
-74 -29 0
-75 -30 0
-121 -28 0
-122 -29 0
-123 -30 0
-142 -28 0
-143 -29 0
-144 -30 0
-91 -31 0
-92 -32 0
-93 -33 0
-94 -31 0
-95 -32 0
-96 -33 0
-142 -31 0
-143 -32 0
-144 -33 0
-58 -34 0
-59 -35 0
-60 -36 0
-70 -34 0
-71 -35 0
-72 -36 0
-85 -34 0
-86 -35 0
-87 -36 0
-67 -37 0
-68 -38 0
-69 -39 0
-97 -37 0
-98 -38 0
-99 -39 0
-109 -37 0
-110 -38 0
-111 -39 0
-121 -37 0
-122 -38 0
-123 -39 0
-133 -37 0
-134 -38 0
-135 -39 0
-112 -40 0
-113 -41 0
-114 -42 0
-130 -40 0
-131 -41 0
-132 -42 0
-148 -40 0
-149 -41 0
-150 -42 0
-52 -43 0
-53 -44 0
-54 -45 0
-58 -43 0
-59 -44 0
-60 -45 0
-91 -43 0
-92 -44 0
-93 -45 0
-97 -43 0
-98 -44 0
-99 -45 0
-115 -43 0
-116 -44 0
-117 -45 0
-139 -43 0
-140 -44 0
-141 -45 0
-55 -46 0
-56 -47 0
-57 -48 0
-100 -46 0
-101 -47 0
-102 -48 0
-115 -46 0
-116 -47 0
-117 -48 0
-130 -46 0
-131 -47 0
-132 -48 0
-64 -49 0
-65 -50 0
-66 -51 0
-79 -49 0
-80 -50 0
-81 -51 0
-85 -49 0
-86 -50 0
-87 -51 0
-100 -49 0
-101 -50 0
-102 -51 0
-103 -49 0
-104 -50 0
-105 -51 0
-106 -49 0
-107 -50 0
-108 -51 0
-112 -49 0
-113 -50 0
-114 -51 0
-127 -49 0
-128 -50 0
-129 -51 0
-112 -52 0
-113 -53 0
-114 -54 0
-130 -52 0
-131 -53 0
-132 -54 0
-142 -52 0
-143 -53 0
-144 -54 0
-106 -55 0
-107 -56 0
-108 -57 0
-118 -55 0
-119 -56 0
-120 -57 0
-136 -55 0
-137 -56 0
-138 -57 0
-142 -55 0
-143 -56 0
-144 -57 0
-115 -58 0
-116 -59 0
-117 -60 0
-121 -58 0
-122 -59 0
-123 -60 0
-118 -61 0
-119 -62 0
-120 -63 0
-124 -61 0
-125 -62 0
-126 -63 0
-115 -64 0
-116 -65 0
-117 -66 0
-118 -64 0
-119 -65 0
-120 -66 0
-124 -64 0
-125 -65 0
-126 -66 0
-115 -67 0
-116 -68 0
-117 -69 0
-121 -67 0
-122 -68 0
-123 -69 0
-106 -70 0
-107 -71 0
-108 -72 0
-130 -70 0
-131 -71 0
-132 -72 0
-103 -73 0
-104 -74 0
-105 -75 0
-106 -73 0
-107 -74 0
-108 -75 0
-109 -76 0
-110 -77 0
-111 -78 0
-112 -76 0
-113 -77 0
-114 -78 0
-118 -76 0
-119 -77 0
-120 -78 0
-121 -82 0
-122 -83 0
-123 -84 0
-124 -82 0
-125 -83 0
-126 -84 0
-145 -82 0
-146 -83 0
-147 -84 0
-109 -85 0
-110 -86 0
-111 -87 0
-115 -85 0
-116 -86 0
-117 -87 0
-133 -85 0
-134 -86 0
-135 -87 0
-148 -85 0
-149 -86 0
-150 -87 0
-124 -88 0
-125 -89 0
-126 -90 0
-109 -91 0
-110 -92 0
-111 -93 0
-142 -91 0
-143 -92 0
-144 -93 0
-133 -94 0
-134 -95 0
-135 -96 0
-106 -97 0
-107 -98 0
-108 -99 0
-121 -97 0
-122 -98 0
-123 -99 0
-142 -97 0
-143 -98 0
-144 -99 0
-139 -100 0
-140 -101 0
-141 -102 0
